NAME : cgl_38.3887.tour
COMMENT : Length = 3887
COMMENT : Found by LKH-3 [Keld Helsgaun] Fri Nov  8 17:38:18 2024
TYPE : TOUR
DIMENSION : 39
TOUR_SECTION
38
37
18
28
12
30
22
19
36
21
33
16
25
35
34
14
15
10
27
32
20
29
23
8
26
24
7
9
13
11
31
17
1
2
39
5
6
3
4
-1
EOF
